(declare-rel Invariant (Bool Bool Bool Bool Bool Bool Bool Bool Bool))
(declare-rel Goal ())
(declare-var A Bool)
(declare-var B Bool)
(declare-var C Bool)
(declare-var D Bool)
(declare-var E Bool)
(declare-var F Bool)
(declare-var G Bool)
(declare-var H Bool)
(declare-var I Bool)
(declare-var J Bool)
(declare-var K Bool)
(declare-var L Bool)
(declare-var M Bool)
(declare-var N Bool)
(declare-var O Bool)
(declare-var P Bool)
(declare-var Q Bool)
(declare-var R Bool)
(declare-var S Bool)
(declare-var T Bool)
(declare-var U Bool)
(rule (=> (not (or A B C D E F G H I))
    (Invariant A B C D E F G H I)))
(rule (let ((a!1 (not (and B C D E F G H S I)))
      (a!2 (and G (not (and (not H) (not I)))))
      (a!4 (not (and C D E F G H S I)))
      (a!6 (not (and (not C) (not (and D E F G H S I)))))
      (a!7 (not (and (not D) (not (and E F G H S I)))))
      (a!9 (not (and (not E) (not (and F G H S I)))))
      (a!11 (not (and (not F) (not (and G H S I)))))
      (a!13 (not (and (not G) (not (and H S I)))))
      (a!15 (not (and (not H) (not (and S I))))))
(let ((a!3 (and (not (and A B C D E F G H S I))
                (not (and (not A) a!1))
                (not A)
                (not B)
                (not C)
                (not D)
                (not E)
                (not F)
                (not a!2)))
      (a!5 (and (not A)
                (not B)
                (not C)
                (not D)
                (not E)
                (not F)
                (not a!2)
                a!1
                (not (and (not B) a!4))))
      (a!8 (= M
              (and (not A)
                   (not B)
                   (not C)
                   (not D)
                   (not E)
                   (not F)
                   (not a!2)
                   (not (and D E F G H S I))
                   a!7)))
      (a!10 (= N
               (and (not A)
                    (not B)
                    (not C)
                    (not D)
                    (not E)
                    (not F)
                    (not a!2)
                    (not (and E F G H S I))
                    a!9)))
      (a!12 (= O
               (and (not A)
                    (not B)
                    (not C)
                    (not D)
                    (not E)
                    (not F)
                    (not a!2)
                    (not (and F G H S I))
                    a!11)))
      (a!14 (= P
               (and (not A)
                    (not B)
                    (not C)
                    (not D)
                    (not E)
                    (not F)
                    (not a!2)
                    (not (and G H S I))
                    a!13)))
      (a!16 (= Q
               (and (not A)
                    (not B)
                    (not C)
                    (not D)
                    (not E)
                    (not F)
                    (not a!2)
                    (not (and H S I))
                    a!15)))
      (a!17 (and (not A)
                 (not B)
                 (not C)
                 (not D)
                 (not E)
                 (not F)
                 (not a!2)
                 (not (and S I))
                 (not (and (not S) (not I))))))
(let ((a!18 (and (Invariant A B C D E F G H I)
                 (= J a!3)
                 (= K a!5)
                 (= L
                    (and (not A)
                         (not B)
                         (not C)
                         (not D)
                         (not E)
                         (not F)
                         (not a!2)
                         a!4
                         a!6))
                 a!8
                 a!10
                 a!12
                 a!14
                 a!16
                 (= R a!17))))
  (=> a!18 (Invariant J K L M N O P Q R))))))
(rule (let ((a!1 (not (and (not T) (not S) (not R) (not Q) (not P) (not (and O N))))))
  (=> (and (Invariant U T S R Q P O N M) (or U a!1)) Goal)))
(query Goal)
